123 26 121 34 104 114 22 47 70 72 147 91 108 
30 20 194 24 124 192 88 32 130 11 160 
132 93 137 5 146 103 83 62 122 139 
178 1 119 188 
140 133 14 38 152 84 138 59 40 31 156 7 
154 61 151 125 77 189 177 74 161 
196 82 37 18 66 53 200 97 197 75 
87 113 3 195 180 41 81 181 198 102 98 128 183 
63 44 36 168 187 39 9 13 100 89 
33 68 21 16 17 19 191 85 174 
145 115 163 173 136 142 159 127 65 56 150 
106 48 162 126 170 185 78 105 
4 193 54 129 116 149 45 99 8 
155 120 51 143 112 165 69 79 101 148 50 64 80 
157 199 167 186 109 25 27 179 190 28 
73 60 57 58 43 141 135 182 49 117 131 107 175 164 
46 15 184 153 166 95 144 110 52 90 
55 67 94 12 6 29 96 10 
2 76 118 111 158 
86 169 172 
92 176 134 42 
35 171 
71 23 

